Copyright (C) 2013-2015, Filipe Brandao
Build (method = -2)
  #dp: 124145
  Step-3' Graph: 918 vertices and 71368 arcs (0.72s)
  Step-4' Graph: 916 vertices and 71364 arcs (0.74s)
  #V4/#V3 = 1.00
  #A4/#A3 = 1.00
Ready! (0.74s)
Optimize a model with 1042 rows, 71365 columns and 212270 nonzeros
Presolve removed 5 rows and 6 columns
Presolve time: 0.41s
Presolved: 1037 rows, 71359 columns, 212257 nonzeros
Variable types: 0 continuous, 71359 integer (38525 binary)
Found heuristic solution: objective 108.0000000
Optimize a model with 1037 rows, 71359 columns and 212257 nonzeros
Presolved: 1037 rows, 71359 columns, 212257 nonzeros

Root barrier log...

Ordering time: 0.02s

Barrier statistics:
 AA' NZ     : 1.474e+05
 Factor NZ  : 2.839e+05 (roughly 30 MBytes of memory)
 Factor Ops : 9.258e+07 (less than 1 second per iteration)
 Threads    : 1

                  Objective                Residual
Iter       Primal          Dual         Primal    Dual     Compl     Time
   0   2.17479482e+04 -2.55090147e+05  2.68e+05 1.58e-01  5.72e+01     0s
   1   6.47751470e+03 -1.20544144e+05  3.77e+04 6.66e-16  8.55e+00     0s
   2   2.27213930e+03 -7.79681856e+04  6.72e+03 3.25e-02  1.89e+00     0s
   3   2.20184318e+03 -3.33701478e+04  1.08e+03 6.57e-03  4.26e-01     0s
   4   1.50421652e+03 -9.72340517e+03  2.68e+02 1.51e-03  1.14e-01     0s
   5   1.06698294e+03 -4.57303990e+03  1.28e+02 7.28e-04  5.59e-02     0s
   6   5.09758036e+02 -2.08472830e+03  3.84e+01 3.29e-04  2.29e-02     0s
   7   3.19062289e+02 -8.84136386e+02  1.66e+01 1.32e-04  1.01e-02     0s
   8   2.58543244e+02 -7.23036342e+02  1.07e+01 1.07e-04  7.85e-03     0s
   9   2.42064994e+02 -6.22443566e+02  9.54e+00 9.17e-05  6.87e-03     0s
  10   2.18713595e+02 -5.56254211e+02  7.74e+00 8.21e-05  6.05e-03     0s
  11   1.99453678e+02 -4.39117742e+02  6.84e+00 6.48e-05  4.99e-03     0s
  12   1.82654534e+02 -3.71930780e+02  5.97e+00 5.25e-05  4.31e-03     1s
  13   1.73170664e+02 -3.02917938e+02  5.53e+00 3.95e-05  3.71e-03     1s
  14   1.61227647e+02 -2.27862983e+02  5.02e+00 2.75e-05  3.03e-03     1s
  15   1.44569644e+02 -2.00617653e+02  4.37e+00 2.16e-05  2.68e-03     1s
  16   1.26735533e+02 -1.71767745e+02  3.71e+00 1.69e-05  2.30e-03     1s
  17   1.13269742e+02 -1.48341170e+02  3.21e+00 1.26e-05  2.00e-03     1s
  18   1.05264149e+02 -1.39432660e+02  2.92e+00 1.10e-05  1.87e-03     1s
  19   9.54012719e+01 -1.29745817e+02  2.56e+00 9.43e-06  1.71e-03     1s
  20   8.03855189e+01 -9.35046761e+01  2.04e+00 3.70e-06  1.31e-03     1s
  21   7.77150593e+01 -8.98988334e+01  1.97e+00 3.09e-06  1.26e-03     1s
  22   7.04213955e+01 -6.67284031e+01  1.75e+00 4.38e-16  1.03e-03     1s
  23   5.43822603e+01 -4.94773560e+01  1.26e+00 5.05e-16  7.72e-04     1s
  24   4.50289772e+01 -3.40417713e+01  9.62e-01 4.44e-16  5.84e-04     1s
  25   3.70782675e+01 -1.23559721e+01  6.93e-01 3.28e-16  3.63e-04     1s
  26   3.25041754e+01 -8.16809921e+00  5.25e-01 3.53e-16  2.96e-04     1s
  27   2.86908948e+01  1.99331249e+00  3.73e-01 3.94e-16  1.93e-04     1s
  28   2.44193151e+01  6.80757539e+00  1.86e-01 4.22e-16  1.26e-04     1s
  29   2.36086579e+01  1.00796962e+01  1.41e-01 3.93e-16  9.63e-05     1s
  30   2.35229863e+01  1.23031030e+01  1.36e-01 3.40e-16  7.99e-05     1s
  31   2.29688073e+01  1.35411414e+01  8.95e-02 4.18e-16  6.68e-05     1s
  32   2.29787003e+01  1.45740318e+01  8.33e-02 4.69e-16  5.95e-05     1s
  33   2.28859797e+01  1.65637435e+01  5.94e-02 4.40e-16  4.46e-05     1s
  34   2.28007146e+01  1.78414554e+01  4.59e-02 4.46e-16  3.50e-05     1s
  35   2.26877779e+01  2.04439783e+01  2.87e-02 4.44e-16  1.58e-05     1s
  36   2.25744902e+01  2.12850900e+01  1.12e-02 3.33e-16  9.06e-06     1s
  37   2.25373076e+01  2.16918732e+01  6.68e-03 4.44e-16  5.93e-06     1s
  38   2.25129575e+01  2.19518740e+01  3.73e-03 3.33e-16  3.94e-06     1s
  39   2.25090926e+01  2.20781063e+01  3.27e-03 4.44e-16  3.02e-06     1s
  40   2.24918786e+01  2.23149978e+01  1.22e-03 3.33e-16  1.24e-06     1s
  41   2.24814733e+01  2.24445136e+01  1.45e-05 3.33e-16  2.59e-07     1s
  42   2.24810059e+01  2.24806242e+01  2.09e-13 3.33e-16  2.67e-09     2s
  43   2.24810000e+01  2.24810000e+01  7.68e-14 3.33e-16  8.81e-15     2s

Barrier solved model in 43 iterations and 1.55 seconds
Optimal objective 2.24810000e+01


Root relaxation: objective 2.248100e+01, 66429 iterations, 3.76 seconds
Total elapsed time = 11.32s
Total elapsed time = 15.37s
Total elapsed time = 23.17s

    Nodes    |    Current Node    |     Objective Bounds      |     Work
 Expl Unexpl |  Obj  Depth IntInf | Incumbent    BestBd   Gap | It/Node Time

     0     0   22.48100    0  129  108.00000   22.48100  79.2%     -   27s
H    0     0                      24.0000000   22.48100  6.33%     -   27s
H    0     0                      23.0000000   22.48100  2.26%     -   28s

Explored 0 nodes (109172 simplex iterations) in 28.59 seconds
Thread count was 1 (of 4 available processors)

Optimal solution found (tolerance 0.00e+00)
Best objective 2.300000000000e+01, best bound 2.300000000000e+01, gap 0.0%
Preprocessing time: 0.88 seconds
Gurobi run time: 28.59 seconds
Total run time: 29.47 seconds
Objective: 23
Solution:
1 x [i=1, i=22, i=30, i=40, i=62, i=86, i=91, i=115]
1 x [i=2, i=8, i=20, i=62, i=75, i=86, i=96, i=107]
1 x [i=3, i=27, i=28, i=32, i=44, i=67, i=104]
1 x [i=4, i=6, i=27, i=67, i=74, i=82, i=92]
1 x [i=4, i=21, i=30, i=60, i=62, i=94, i=99, i=106, i=120, i=126]
1 x [i=4, i=31, i=59, i=68, i=69, i=83, i=95, i=97, i=113, i=114]
1 x [i=5, i=33, i=33, i=43, i=70, i=73, i=76, i=117]
1 x [i=7, i=24, i=25, i=57, i=76, i=78, i=95, i=113, i=118]
1 x [i=7, i=25, i=25, i=37, i=38, i=66, i=105]
1 x [i=8, i=19, i=51, i=54, i=55, i=71, i=109, i=122]
1 x [i=9, i=16, i=38, i=46, i=61, i=90, i=90, i=98]
1 x [i=10, i=27, i=34, i=46, i=46, i=50, i=110, i=124, i=125]
1 x [i=11, i=23, i=32, i=48, i=63, i=79, i=104, i=117, i=119]
1 x [i=12, i=13, i=22, i=41, i=70, i=88, i=112, i=116, i=126]
1 x [i=12, i=17, i=26, i=46, i=66, i=96, i=100, i=101, i=119]
1 x [i=14, i=31, i=35, i=35, i=73, i=75, i=107, i=117, i=121]
1 x [i=15, i=19, i=27, i=62, i=66, i=79, i=93]
1 x [i=16, i=36, i=48, i=53, i=55, i=64, i=85]
1 x [i=16, i=40, i=50, i=56, i=65, i=85, i=92, i=102, i=102, i=120]
1 x [i=18, i=22, i=29, i=41, i=72, i=103, i=108, i=111, i=112, i=121, i=126]
1 x [i=23, i=42, i=47, i=58, i=70, i=76, i=80, i=86, i=112]
1 x [i=26, i=43, i=49, i=77, i=84, i=89, i=94, i=111, i=118, i=123, i=126]
1 x [i=39, i=45, i=52, i=73, i=81, i=84, i=87, i=97, i=106, i=110]
